# 78643
param n := 25;
param s := 1;
set E :=  (0,14) (0,23) (1,10) (1,20) (1,21) (2,11) (2,14) (2,16) (3,8) (3,11) (4,6) (5,11) (5,12) (5,23) (6,7) (6,9) (6,13) (6,16) (6,17) (6,24) (7,21) (7,23) (8,15) (8,16) (8,17) (9,12) (9,18) (9,22) (12,19) (14,19) (15,18) (17,23) (18,21) (18,23) (21,24);
